VER
1

OBJSENSE
MIN

VAR
3 1
F 3

INT
3
0
1
2

CON
2 1
L+ 2

PSDCON
2
2
2

OBJACOORD
3
0 1.000000
1 -2.000000
2 -1.000000

ACOORD
6
0 0 1.000000
0 1 1.000000
0 2 1.000000
1 0 -1.000000
1 1 -1.000000
1 2 -1.000000

BCOORD
2
0 -1.000000
1 8.000000

HCOORD
5
0 0 0 0 1.000000
0 1 1 0 1.000000
0 2 1 1 1.000000
1 0 1 0 1.000000
1 2 0 0 1.000000

DCOORD
1
1 1 1 2.100000
